research/certificates/n3_2x3_k3.cnf
p cnf 34 70
1 2 3 0
1 4 0
-1 7 0
-7 8 0
-2 -7 9 0
-9 10 0
-3 -9 11 0
-11 12 0
-4 -11 0
-2 8 0
-8 13 0
-3 -8 10 0
-10 14 0
-4 -10 12 0
-12 15 0
-5 -12 0
-3 13 0
-4 -13 14 0
-5 -14 15 0
-6 -15 0
1 16 0
-16 17 0
2 -16 18 0
-18 19 0
3 -18 20 0
-20 21 0
4 -20 0
2 17 0
-17 22 0
3 -17 19 0
-19 23 0
4 -19 21 0
-21 24 0
5 -21 0
3 22 0
4 -22 23 0
5 -23 24 0
6 -24 0
-25 1 0
-25 2 0
-25 3 0
-26 4 0
-26 5 0
-26 6 0
25 26 0
-27 1 0
-27 2 0
-27 4 0
-28 2 0
-28 3 0
-28 5 0
-29 1 0
-29 2 0
-29 5 0
-30 2 0
-30 3 0
-30 6 0
-31 2 0
-31 4 0
-31 5 0
-32 3 0
-32 5 0
-32 6 0
-33 1 0
-33 4 0
-33 5 0
-34 2 0
-34 5 0
-34 6 0
27 28 29 30 31 32 33 34 0
