research/certificates/n3_2x3_k3.lrat
71 1 0 2 39 45 43 44 20 19 18 11 17 10 1 0
72 7 0 71 3 0
73 8 0 72 4 0
74 13 0 73 11 0
75 -26 0 74 42 43 44 18 20 19 0
76 25 0 75 45 0
77 2 0 76 40 0
78 3 0 76 41 0
79 9 0 77 72 5 0
80 10 0 78 73 12 0
81 11 0 79 78 7 0
82 14 0 80 13 0
83 12 0 81 8 0
84 -4 0 81 9 0
85 15 0 83 15 0
86 -5 0 83 16 0
87 -20 0 84 27 0
88 -27 0 84 48 0
89 -31 0 84 59 0
90 -33 0 84 65 0
91 -6 0 85 20 0
92 -21 0 86 34 0
93 -28 0 86 51 0
94 -29 0 86 54 0
95 -32 0 86 62 0
96 -34 0 86 68 0
97 -24 0 91 38 0
98 -30 0 91 57 0
99 -19 0 92 84 32 0
100 0 95 98 94 88 89 93 90 96 70 0
